\* Problem: Unknown *\

Maximize
 obj: + xp_0_0 + xp_0_1 + xp_0_2 + xp_0_3 + xp_0_4 + xp_0_5 + xp_0_6
 + xp_0_7 + xp_1_0 + xp_1_1 + xp_2_0 + xp_2_1 + xp_2_2 + xp_2_3 + xp_2_4
 + xp_3_0 + xp_3_1 + xp_3_2 + xp_3_3 + xp_3_4 + xp_4_0 + xp_4_1 + xp_5_0
 + xp_5_1 + xp_5_2 + xp_6_0 + xp_6_1 + xp_6_2 + xp_6_3 + xp_7_0 + xp_7_1
 + xp_8_0 + xp_8_1 + xp_9_0 + xp_10_0 + xp_10_1 + xp_11_0 + xp_11_1
 + xp_11_2 + xp_11_3 + xp_11_4 + xp_12_0 + xp_12_1 + xp_13_0 + xp_13_1
 + xp_14_0 + xp_14_1 + xp_15_0 + xp_16_0 + xp_16_1 + xp_17_0 + xp_17_1
 + xp_17_2 + xp_17_3 + xp_17_4 + xp_17_5 + xp_17_6 + xp_18_0 + xp_18_1
 + xp_18_2 + xp_18_3 + xp_18_4 + xp_19_0 + xp_19_1 + xp_19_2 + xp_19_3
 + xp_19_4 + xp_20_0 + xp_20_1 + xp_20_2 + xp_20_3 + xp_21_0 + xp_21_1
 + xp_21_2 + xp_21_3 + xp_21_4 + xp_22_0 + xp_22_1 + xp_22_2 + xp_22_3
 + xp_22_4 + xp_22_5 + xp_22_6 + xp_22_7 + xp_23_0 + xp_23_1 + xp_23_2
 + xp_23_3 + xp_23_4 + xp_23_5 + xp_23_6 + xp_23_7

Subject To
 r_1: 0 xp_0_0 <= 29.2225609756098
 r_2: + xp_23_6 + xp_22_3 + xp_18_4 + xp_18_1 + xp_12_1 + xp_6_2
 + xp_5_2 + xp_2_3 <= 27.6720505617978
 r_3: + xp_23_4 + xp_21_1 + xp_18_3 + xp_6_1 <= 29.7154017857143
 r_4: + xp_17_2 + xp_15_0 <= 30
 r_5: + xp_18_0 <= 27.0554272517321
 r_6: + xp_18_2 <= 29.0077821011673
 r_7: + xp_20_3 <= 29.2225609756098
 r_8: + xp_23_2 + xp_22_2 + xp_11_3 + xp_5_1 + xp_3_4 + xp_3_2 + xp_2_1
 <= 27.6720505617978
 r_9: + xp_23_3 + xp_22_7 + xp_22_4 + xp_17_5 + xp_11_1 + xp_3_3
 + xp_3_1 <= 29.7154017857143
 r_10: + xp_17_3 + xp_11_4 + xp_3_0 <= 29.0077821011673
 r_11: + xp_18_2 + xp_11_2 <= 27.0554272517321
 r_12: + xp_11_0 <= 29.0077821011673
 r_13: 0 xp_0_0 <= 29.0077821011673
 r_14: + xp_21_2 + xp_14_0 + xp_4_1 + xp_0_6 + xp_0_1
 <= 27.6720505617978
 r_15: + xp_21_0 + xp_19_3 <= 29.7154017857143
 r_16: + xp_22_1 + xp_21_3 + xp_0_5 + xp_0_3 + xp_0_2
 <= 29.2225609756098
 r_17: + xp_0_0 <= 27.0554272517321
 r_18: + xp_21_1 + xp_4_0 <= 29.2225609756098
 r_19: + xp_19_0 <= 29.2225609756098
 r_20: + xp_21_4 + xp_19_4 + xp_19_2 + xp_19_1 + xp_14_1 + xp_0_7
 + xp_0_4 <= 29.2225609756098
 r_21: + xp_20_1 <= 27.6720505617978
 r_22: + xp_21_2 + xp_7_1 <= 29.7154017857143
 r_23: + xp_23_7 + xp_22_3 + xp_22_2 + xp_17_6 + xp_3_2
 <= 27.6720505617978
 r_24: + xp_23_6 + xp_23_5 + xp_23_2 + xp_18_4 + xp_6_3 + xp_6_2
 + xp_3_4 + xp_0_6 + xp_0_4 <= 28.0263157894737
 r_25: 0 xp_0_0 <= 27.6720505617978
 r_26: + xp_18_1 + xp_0_7 + xp_0_1 <= 27.0554272517321
 r_27: + xp_11_3 + xp_4_1 <= 27.6720505617978
 r_28: + xp_19_2 + xp_10_1 <= 27.6720505617978
 r_29: + xp_20_2 <= 29.7154017857143
 r_30: + xp_2_0 <= 29.7154017857143
 r_31: + xp_23_4 + xp_23_3 + xp_22_7 + xp_22_4 + xp_18_3 + xp_17_5
 + xp_6_1 + xp_3_3 + xp_3_1 + xp_2_4 <= 28.0263157894737
 r_32: + xp_2_2 <= 29.7154017857143
 r_33: + xp_11_1 + xp_2_3 <= 29.7154017857143
 r_34: + xp_19_4 + xp_19_3 + xp_2_1 <= 29.7154017857143
 r_35: 0 xp_0_0 <= 29.2225609756098
 r_36: + xp_9_0 <= 27.6720505617978
 r_37: + xp_21_3 + xp_13_1 + xp_8_1 + xp_0_3 <= 28.0263157894737
 r_38: + xp_23_7 + xp_1_1 <= 30
 r_39: + xp_17_6 + xp_17_1 + xp_3_2 + xp_0_5 <= 30
 r_40: + xp_0_2 <= 27.0554272517321
 r_41: + xp_12_0 + xp_2_4 <= 28.0263157894737
 r_42: + xp_21_3 <= 28.0263157894737
 r_43: + xp_22_6 + xp_22_4 + xp_16_0 <= 28.0263157894737
 r_44: + xp_23_6 + xp_23_5 + xp_23_4 + xp_23_3 + xp_23_2 + xp_23_1
 + xp_22_7 + xp_22_5 + xp_16_1 + xp_3_3 <= 28.0263157894737
 r_45: + xp_17_5 + xp_17_4 + xp_12_1 + xp_3_4 + xp_3_1
 <= 28.0263157894737
 r_46: + xp_18_4 + xp_18_3 + xp_0_6 + xp_0_4 + xp_0_3
 <= 27.0554272517321
 r_47: + xp_22_7 + xp_22_5 + xp_16_1 + xp_13_1 <= 30
 r_48: + xp_13_0 <= 28.0263157894737
 r_49: + xp_3_3 <= 30
 r_50: 0 xp_0_0 <= 27.0554272517321
 r_51: + xp_8_1 + xp_1_1 <= 30
 r_52: + xp_8_0 <= 28.0263157894737
 r_53: + xp_1_0 <= 30
 r_54: + xp_0_5 <= 27.0554272517321
 r_55: + xp_12_1 + xp_11_4 <= 30
 r_56: 0 xp_0_0 <= 29.0077821011673
 r_57: + xp_22_1 <= 27.0554272517321
 r_58: + xp_23_7 + xp_23_5 + xp_17_6 + xp_6_3 + xp_5_0
 <= 27.0554272517321
 r_59: + xp_22_0 + xp_17_1 <= 27.0554272517321
 r_60: + xp_23_1 + xp_22_6 + xp_22_5 + xp_17_4 + xp_6_0
 <= 27.0554272517321
 r_61: + xp_23_0 <= 27.0554272517321
 r_62: + xp_17_0 <= 27.0554272517321
 r_63: + xp_23_6 + xp_23_4 + xp_22_3 + xp_17_2 + xp_11_2 + xp_6_2
 + xp_6_1 + xp_5_2 <= 27.0554272517321
 r_64: + xp_23_3 + xp_23_2 + xp_22_7 + xp_22_4 + xp_22_2 + xp_17_5
 + xp_17_3 + xp_5_1 <= 27.0554272517321
 r_65: + xp_20_1 + xp_19_2 + xp_14_1 + xp_10_1 + xp_7_1 + xp_2_2
 + xp_0_7 + xp_0_4 <= 27.6720505617978
 r_66: + xp_21_4 + xp_20_2 + xp_19_4 + xp_7_0 <= 29.7154017857143
 r_67: + xp_20_3 + xp_19_1 + xp_10_0 <= 29.0077821011673
 r_68: + xp_20_0 <= 29.2225609756098

Bounds
 0 <= xp_0_0 <= 28.6470493925831
 0 <= xp_0_1 <= 4.45578904664448
 0 <= xp_0_2 <= 15.2435428033944
 0 <= xp_0_3 <= 2.00240742770341
 0 <= xp_0_4 <= 2.45338161894107
 0 <= xp_0_5 <= 4.00481485540683
 0 <= xp_0_6 <= 2.61575283243868
 0 <= xp_0_7 <= 5.23150566487736
 0 <= xp_1_0 <= 20.1022282389374
 0 <= xp_1_1 <= 16.0974133835306
 0 <= xp_2_0 <= 23.6680873524876
 0 <= xp_2_1 <= 1.09440376516673
 0 <= xp_2_2 <= 2.00240742770341
 0 <= xp_2_3 <= 4.73841684062025
 0 <= xp_2_4 <= 4.19121495803688
 0 <= xp_3_0 <= 25.1293041247057
 0 <= xp_3_1 <= 4.20323741223281
 0 <= xp_3_2 <= 2.73601742254655
 0 <= xp_3_3 <= 0.733609994843134
 0 <= xp_3_4 <= 0.366804997421567
 0 <= xp_4_0 <= 23.0908013007105
 0 <= xp_4_1 <= 3.84846688345174
 0 <= xp_5_0 <= 23.0908013007105
 0 <= xp_5_1 <= 1.92423344172587
 0 <= xp_5_2 <= 1.92423344172587
 0 <= xp_6_0 <= 13.8544807804263
 0 <= xp_6_1 <= 5.19543029265986
 0 <= xp_6_2 <= 3.46362019510657
 0 <= xp_6_3 <= 1.73181009755329
 0 <= xp_7_0 <= 21.5754674653513
 0 <= xp_7_1 <= 1.65965134348856
 0 <= xp_8_0 <= 19.3866519253882
 0 <= xp_8_1 <= 1.49128091733755
 0 <= xp_9_0 <= 19.3625990073666
 0 <= xp_10_0 <= 17.9795562211261
 0 <= xp_10_1 <= 1.38304278624047
 0 <= xp_11_0 <= 28.0337039878478
 0 <= xp_11_1 <= 15.8809331165216
 0 <= xp_11_2 <= 5.49607975348496
 0 <= xp_11_3 <= 11.5033020365952
 0 <= xp_11_4 <= 0.372816224519533
 0 <= xp_12_0 <= 16.8851484511445
 0 <= xp_12_1 <= 1.29885757316496
 0 <= xp_13_0 <= 13.8905601574586
 0 <= xp_13_1 <= 3.78833458839781
 0 <= xp_14_0 <= 12.0264590107867
 0 <= xp_14_1 <= 4.81058360431468
 0 <= xp_15_0 <= 16.6686721889504
 0 <= xp_16_0 <= 12.5676496662721
 0 <= xp_16_1 <= 3.42754081807421
 0 <= xp_17_0 <= 28.0517336643268
 0 <= xp_17_1 <= 6.02525195958928
 0 <= xp_17_2 <= 4.02284453188587
 0 <= xp_17_3 <= 1.34094817729529
 0 <= xp_17_4 <= 4.68430378229399
 0 <= xp_17_5 <= 1.34094817729529
 0 <= xp_17_6 <= 1.34094817729529
 0 <= xp_18_0 <= 21.5874899195473
 0 <= xp_18_1 <= 5.20144552457268
 0 <= xp_18_2 <= 15.604336573718
 0 <= xp_18_3 <= 1.19663066916585
 0 <= xp_18_4 <= 1.19663066916585
 0 <= xp_19_0 <= 29.1942552799813
 0 <= xp_19_1 <= 2.32110258426698
 0 <= xp_19_2 <= 4.64220516853396
 0 <= xp_19_3 <= 6.96330775280093
 0 <= xp_19_4 <= 1.16055129213349
 0 <= xp_20_0 <= 28.2321345543035
 0 <= xp_20_1 <= 4.40167598831822
 0 <= xp_20_2 <= 4.40167598831822
 0 <= xp_20_3 <= 6.40408341602164
 0 <= xp_21_0 <= 21.8941786411743
 0 <= xp_21_1 <= 6.90919869928953
 0 <= xp_21_2 <= 5.87491921954702
 0 <= xp_21_3 <= 5.94107075132863
 0 <= xp_21_4 <= 0.968127947960902
 0 <= xp_22_0 <= 21.4131202807429
 0 <= xp_22_1 <= 2.00240742770341
 0 <= xp_22_2 <= 7.39626828681897
 0 <= xp_22_3 <= 2.5435900735591
 0 <= xp_22_4 <= 0.847863357853035
 0 <= xp_22_5 <= 0.847863357853035
 0 <= xp_22_6 <= 4.00481485540683
 0 <= xp_22_7 <= 0.847863357853035
 0 <= xp_23_0 <= 29.7294307035539
 0 <= xp_23_1 <= 4.23931678926517
 0 <= xp_23_2 <= 1.69572671570607
 0 <= xp_23_3 <= 0.847863357853035
 0 <= xp_23_4 <= 0.847863357853035
 0 <= xp_23_5 <= 0.847863357853035
 0 <= xp_23_6 <= 0.847863357853035
 0 <= xp_23_7 <= 0.847863357853035

End
